\ Model _copy
\ LP format - for model browsing. Use MPS format to capture full model detail.
Maximize
 
Subject To
 R640:
   y_Tinguiririca_de_San_Fernando_CEB_Puerto_Montt_1_Gimnasio_Colegio_Los_Leones_1
   + y_Tinguiririca_de_San_Fernando_CEB_Puerto_Montt_1_Gimnasio_Regional_de_Talca_1
   + y_Tinguiririca_de_San_Fernando_CEB_Puerto_Montt_1_Gimnasio_Municipal_de_San_Fernando_1
   + y_Tinguiririca_de_San_Fernando_CEB_Puerto_Montt_1_Estadio_Palestino_1
   + y_Tinguiririca_de_San_Fernando_CEB_Puerto_Montt_1_Casa_del_Deporte_1
   + y_Tinguiririca_de_San_Fernando_CEB_Puerto_Montt_1_Gimnasio_Municipal_de_Puente_Alto_1
   + y_Tinguiririca_de_San_Fernando_CEB_Puerto_Montt_1_Coliseo_Municipal_Antonio_Azurmendy_1
   + y_Tinguiririca_de_San_Fernando_CEB_Puerto_Montt_1_Gimnasio_Fiscal_de_Ancud_1
   + y_Tinguiririca_de_San_Fernando_CEB_Puerto_Montt_1_Gimnasio_Monumental_María_Gallardo_1
   + y_Tinguiririca_de_San_Fernando_CEB_Puerto_Montt_1_Gimnasio_Fiscal_de_Castro_1
   + y_Tinguiririca_de_San_Fernando_CEB_Puerto_Montt_1_Gimnasio_de_Las_Ánimas_1
   + y_Tinguiririca_de_San_Fernando_CEB_Puerto_Montt_1_Gimnasio_Municipal_Mario_Merchant_Binder_1
   <= 0.5
 R644:
   y_Tinguiririca_de_San_Fernando_CEB_Puerto_Montt_2_Gimnasio_Colegio_Los_Leones_1
   + y_Tinguiririca_de_San_Fernando_CEB_Puerto_Montt_2_Gimnasio_Regional_de_Talca_1
   + y_Tinguiririca_de_San_Fernando_CEB_Puerto_Montt_2_Gimnasio_Municipal_de_San_Fernando_1
   + y_Tinguiririca_de_San_Fernando_CEB_Puerto_Montt_2_Estadio_Palestino_1
   + y_Tinguiririca_de_San_Fernando_CEB_Puerto_Montt_2_Casa_del_Deporte_1
   + y_Tinguiririca_de_San_Fernando_CEB_Puerto_Montt_2_Gimnasio_Municipal_de_Puente_Alto_1
   + y_Tinguiririca_de_San_Fernando_CEB_Puerto_Montt_2_Coliseo_Municipal_Antonio_Azurmendy_1
   + y_Tinguiririca_de_San_Fernando_CEB_Puerto_Montt_2_Gimnasio_Fiscal_de_Ancud_1
   + y_Tinguiririca_de_San_Fernando_CEB_Puerto_Montt_2_Gimnasio_Monumental_María_Gallardo_1
   + y_Tinguiririca_de_San_Fernando_CEB_Puerto_Montt_2_Gimnasio_Fiscal_de_Castro_1
   + y_Tinguiririca_de_San_Fernando_CEB_Puerto_Montt_2_Gimnasio_de_Las_Ánimas_1
   + y_Tinguiririca_de_San_Fernando_CEB_Puerto_Montt_2_Gimnasio_Municipal_Mario_Merchant_Binder_1
   <= 0.5
 R648:
   y_Tinguiririca_de_San_Fernando_CEB_Puerto_Montt_3_Gimnasio_Colegio_Los_Leones_1
   + y_Tinguiririca_de_San_Fernando_CEB_Puerto_Montt_3_Gimnasio_Regional_de_Talca_1
   + y_Tinguiririca_de_San_Fernando_CEB_Puerto_Montt_3_Gimnasio_Municipal_de_San_Fernando_1
   + y_Tinguiririca_de_San_Fernando_CEB_Puerto_Montt_3_Estadio_Palestino_1
   + y_Tinguiririca_de_San_Fernando_CEB_Puerto_Montt_3_Casa_del_Deporte_1
   + y_Tinguiririca_de_San_Fernando_CEB_Puerto_Montt_3_Gimnasio_Municipal_de_Puente_Alto_1
   + y_Tinguiririca_de_San_Fernando_CEB_Puerto_Montt_3_Coliseo_Municipal_Antonio_Azurmendy_1
   + y_Tinguiririca_de_San_Fernando_CEB_Puerto_Montt_3_Gimnasio_Fiscal_de_Ancud_1
   + y_Tinguiririca_de_San_Fernando_CEB_Puerto_Montt_3_Gimnasio_Monumental_María_Gallardo_1
   + y_Tinguiririca_de_San_Fernando_CEB_Puerto_Montt_3_Gimnasio_Fiscal_de_Castro_1
   + y_Tinguiririca_de_San_Fernando_CEB_Puerto_Montt_3_Gimnasio_de_Las_Ánimas_1
   + y_Tinguiririca_de_San_Fernando_CEB_Puerto_Montt_3_Gimnasio_Municipal_Mario_Merchant_Binder_1
   <= 0.5
 R653:
   y_Tinguiririca_de_San_Fernando_CEB_Puerto_Montt_4_Gimnasio_Colegio_Los_Leones_1
   + y_Tinguiririca_de_San_Fernando_CEB_Puerto_Montt_4_Gimnasio_Regional_de_Talca_1
   + y_Tinguiririca_de_San_Fernando_CEB_Puerto_Montt_4_Gimnasio_Municipal_de_San_Fernando_1
   + y_Tinguiririca_de_San_Fernando_CEB_Puerto_Montt_4_Estadio_Palestino_1
   + y_Tinguiririca_de_San_Fernando_CEB_Puerto_Montt_4_Casa_del_Deporte_1
   + y_Tinguiririca_de_San_Fernando_CEB_Puerto_Montt_4_Gimnasio_Municipal_de_Puente_Alto_1
   + y_Tinguiririca_de_San_Fernando_CEB_Puerto_Montt_4_Coliseo_Municipal_Antonio_Azurmendy_1
   + y_Tinguiririca_de_San_Fernando_CEB_Puerto_Montt_4_Gimnasio_Fiscal_de_Ancud_1
   + y_Tinguiririca_de_San_Fernando_CEB_Puerto_Montt_4_Gimnasio_Monumental_María_Gallardo_1
   + y_Tinguiririca_de_San_Fernando_CEB_Puerto_Montt_4_Gimnasio_Fiscal_de_Castro_1
   + y_Tinguiririca_de_San_Fernando_CEB_Puerto_Montt_4_Gimnasio_de_Las_Ánimas_1
   + y_Tinguiririca_de_San_Fernando_CEB_Puerto_Montt_4_Gimnasio_Municipal_Mario_Merchant_Binder_1
   <= 0.5
 R656:
   y_Tinguiririca_de_San_Fernando_CEB_Puerto_Montt_5_Gimnasio_Colegio_Los_Leones_1
   + y_Tinguiririca_de_San_Fernando_CEB_Puerto_Montt_5_Gimnasio_Regional_de_Talca_1
   + y_Tinguiririca_de_San_Fernando_CEB_Puerto_Montt_5_Gimnasio_Municipal_de_San_Fernando_1
   + y_Tinguiririca_de_San_Fernando_CEB_Puerto_Montt_5_Estadio_Palestino_1
   + y_Tinguiririca_de_San_Fernando_CEB_Puerto_Montt_5_Casa_del_Deporte_1
   + y_Tinguiririca_de_San_Fernando_CEB_Puerto_Montt_5_Gimnasio_Municipal_de_Puente_Alto_1
   + y_Tinguiririca_de_San_Fernando_CEB_Puerto_Montt_5_Coliseo_Municipal_Antonio_Azurmendy_1
   + y_Tinguiririca_de_San_Fernando_CEB_Puerto_Montt_5_Gimnasio_Fiscal_de_Ancud_1
   + y_Tinguiririca_de_San_Fernando_CEB_Puerto_Montt_5_Gimnasio_Monumental_María_Gallardo_1
   + y_Tinguiririca_de_San_Fernando_CEB_Puerto_Montt_5_Gimnasio_Fiscal_de_Castro_1
   + y_Tinguiririca_de_San_Fernando_CEB_Puerto_Montt_5_Gimnasio_de_Las_Ánimas_1
   + y_Tinguiririca_de_San_Fernando_CEB_Puerto_Montt_5_Gimnasio_Municipal_Mario_Merchant_Binder_1
   <= 0.5
 R2461:
   y_CEB_Puerto_Montt_Tinguiririca_de_San_Fernando_1_Gimnasio_Colegio_Los_Leones_1
   + y_CEB_Puerto_Montt_Tinguiririca_de_San_Fernando_1_Gimnasio_Regional_de_Talca_1
   + y_CEB_Puerto_Montt_Tinguiririca_de_San_Fernando_1_Gimnasio_Municipal_de_San_Fernando_1
   + y_CEB_Puerto_Montt_Tinguiririca_de_San_Fernando_1_Estadio_Palestino_1
   + y_CEB_Puerto_Montt_Tinguiririca_de_San_Fernando_1_Casa_del_Deporte_1
   + y_CEB_Puerto_Montt_Tinguiririca_de_San_Fernando_1_Gimnasio_Municipal_de_Puente_Alto_1
   + y_CEB_Puerto_Montt_Tinguiririca_de_San_Fernando_1_Coliseo_Municipal_Antonio_Azurmendy_1
   + y_CEB_Puerto_Montt_Tinguiririca_de_San_Fernando_1_Gimnasio_Fiscal_de_Ancud_1
   + y_CEB_Puerto_Montt_Tinguiririca_de_San_Fernando_1_Gimnasio_Monumental_María_Gallardo_1
   + y_CEB_Puerto_Montt_Tinguiririca_de_San_Fernando_1_Gimnasio_Fiscal_de_Castro_1
   + y_CEB_Puerto_Montt_Tinguiririca_de_San_Fernando_1_Gimnasio_de_Las_Ánimas_1
   + y_CEB_Puerto_Montt_Tinguiririca_de_San_Fernando_1_Gimnasio_Municipal_Mario_Merchant_Binder_1
   <= 0.5
 R2465:
   y_CEB_Puerto_Montt_Tinguiririca_de_San_Fernando_2_Gimnasio_Colegio_Los_Leones_1
   + y_CEB_Puerto_Montt_Tinguiririca_de_San_Fernando_2_Gimnasio_Regional_de_Talca_1
   + y_CEB_Puerto_Montt_Tinguiririca_de_San_Fernando_2_Gimnasio_Municipal_de_San_Fernando_1
   + y_CEB_Puerto_Montt_Tinguiririca_de_San_Fernando_2_Estadio_Palestino_1
   + y_CEB_Puerto_Montt_Tinguiririca_de_San_Fernando_2_Casa_del_Deporte_1
   + y_CEB_Puerto_Montt_Tinguiririca_de_San_Fernando_2_Gimnasio_Municipal_de_Puente_Alto_1
   + y_CEB_Puerto_Montt_Tinguiririca_de_San_Fernando_2_Coliseo_Municipal_Antonio_Azurmendy_1
   + y_CEB_Puerto_Montt_Tinguiririca_de_San_Fernando_2_Gimnasio_Fiscal_de_Ancud_1
   + y_CEB_Puerto_Montt_Tinguiririca_de_San_Fernando_2_Gimnasio_Monumental_María_Gallardo_1
   + y_CEB_Puerto_Montt_Tinguiririca_de_San_Fernando_2_Gimnasio_Fiscal_de_Castro_1
   + y_CEB_Puerto_Montt_Tinguiririca_de_San_Fernando_2_Gimnasio_de_Las_Ánimas_1
   + y_CEB_Puerto_Montt_Tinguiririca_de_San_Fernando_2_Gimnasio_Municipal_Mario_Merchant_Binder_1
   <= 0.5
 R2468:
   y_CEB_Puerto_Montt_Tinguiririca_de_San_Fernando_3_Gimnasio_Colegio_Los_Leones_1
   + y_CEB_Puerto_Montt_Tinguiririca_de_San_Fernando_3_Gimnasio_Regional_de_Talca_1
   + y_CEB_Puerto_Montt_Tinguiririca_de_San_Fernando_3_Gimnasio_Municipal_de_San_Fernando_1
   + y_CEB_Puerto_Montt_Tinguiririca_de_San_Fernando_3_Estadio_Palestino_1
   + y_CEB_Puerto_Montt_Tinguiririca_de_San_Fernando_3_Casa_del_Deporte_1
   + y_CEB_Puerto_Montt_Tinguiririca_de_San_Fernando_3_Gimnasio_Municipal_de_Puente_Alto_1
   + y_CEB_Puerto_Montt_Tinguiririca_de_San_Fernando_3_Coliseo_Municipal_Antonio_Azurmendy_1
   + y_CEB_Puerto_Montt_Tinguiririca_de_San_Fernando_3_Gimnasio_Fiscal_de_Ancud_1
   + y_CEB_Puerto_Montt_Tinguiririca_de_San_Fernando_3_Gimnasio_Monumental_María_Gallardo_1
   + y_CEB_Puerto_Montt_Tinguiririca_de_San_Fernando_3_Gimnasio_Fiscal_de_Castro_1
   + y_CEB_Puerto_Montt_Tinguiririca_de_San_Fernando_3_Gimnasio_de_Las_Ánimas_1
   + y_CEB_Puerto_Montt_Tinguiririca_de_San_Fernando_3_Gimnasio_Municipal_Mario_Merchant_Binder_1
   <= 0.5
 R2473:
   y_CEB_Puerto_Montt_Tinguiririca_de_San_Fernando_4_Gimnasio_Colegio_Los_Leones_1
   + y_CEB_Puerto_Montt_Tinguiririca_de_San_Fernando_4_Gimnasio_Regional_de_Talca_1
   + y_CEB_Puerto_Montt_Tinguiririca_de_San_Fernando_4_Gimnasio_Municipal_de_San_Fernando_1
   + y_CEB_Puerto_Montt_Tinguiririca_de_San_Fernando_4_Estadio_Palestino_1
   + y_CEB_Puerto_Montt_Tinguiririca_de_San_Fernando_4_Casa_del_Deporte_1
   + y_CEB_Puerto_Montt_Tinguiririca_de_San_Fernando_4_Gimnasio_Municipal_de_Puente_Alto_1
   + y_CEB_Puerto_Montt_Tinguiririca_de_San_Fernando_4_Coliseo_Municipal_Antonio_Azurmendy_1
   + y_CEB_Puerto_Montt_Tinguiririca_de_San_Fernando_4_Gimnasio_Fiscal_de_Ancud_1
   + y_CEB_Puerto_Montt_Tinguiririca_de_San_Fernando_4_Gimnasio_Monumental_María_Gallardo_1
   + y_CEB_Puerto_Montt_Tinguiririca_de_San_Fernando_4_Gimnasio_Fiscal_de_Castro_1
   + y_CEB_Puerto_Montt_Tinguiririca_de_San_Fernando_4_Gimnasio_de_Las_Ánimas_1
   + y_CEB_Puerto_Montt_Tinguiririca_de_San_Fernando_4_Gimnasio_Municipal_Mario_Merchant_Binder_1
   <= 0.5
 R2477:
   y_CEB_Puerto_Montt_Tinguiririca_de_San_Fernando_5_Gimnasio_Colegio_Los_Leones_1
   + y_CEB_Puerto_Montt_Tinguiririca_de_San_Fernando_5_Gimnasio_Regional_de_Talca_1
   + y_CEB_Puerto_Montt_Tinguiririca_de_San_Fernando_5_Gimnasio_Municipal_de_San_Fernando_1
   + y_CEB_Puerto_Montt_Tinguiririca_de_San_Fernando_5_Estadio_Palestino_1
   + y_CEB_Puerto_Montt_Tinguiririca_de_San_Fernando_5_Casa_del_Deporte_1
   + y_CEB_Puerto_Montt_Tinguiririca_de_San_Fernando_5_Gimnasio_Municipal_de_Puente_Alto_1
   + y_CEB_Puerto_Montt_Tinguiririca_de_San_Fernando_5_Coliseo_Municipal_Antonio_Azurmendy_1
   + y_CEB_Puerto_Montt_Tinguiririca_de_San_Fernando_5_Gimnasio_Fiscal_de_Ancud_1
   + y_CEB_Puerto_Montt_Tinguiririca_de_San_Fernando_5_Gimnasio_Monumental_María_Gallardo_1
   + y_CEB_Puerto_Montt_Tinguiririca_de_San_Fernando_5_Gimnasio_Fiscal_de_Castro_1
   + y_CEB_Puerto_Montt_Tinguiririca_de_San_Fernando_5_Gimnasio_de_Las_Ánimas_1
   + y_CEB_Puerto_Montt_Tinguiririca_de_San_Fernando_5_Gimnasio_Municipal_Mario_Merchant_Binder_1
   <= 0.5
 R2770:
   y_Tinguiririca_de_San_Fernando_CEB_Puerto_Montt_1_Gimnasio_Colegio_Los_Leones_1
   + y_Tinguiririca_de_San_Fernando_CEB_Puerto_Montt_1_Gimnasio_Regional_de_Talca_1
   + y_Tinguiririca_de_San_Fernando_CEB_Puerto_Montt_1_Gimnasio_Municipal_de_San_Fernando_1
   + y_Tinguiririca_de_San_Fernando_CEB_Puerto_Montt_1_Estadio_Palestino_1
   + y_Tinguiririca_de_San_Fernando_CEB_Puerto_Montt_1_Casa_del_Deporte_1
   + y_Tinguiririca_de_San_Fernando_CEB_Puerto_Montt_1_Gimnasio_Municipal_de_Puente_Alto_1
   + y_Tinguiririca_de_San_Fernando_CEB_Puerto_Montt_1_Coliseo_Municipal_Antonio_Azurmendy_1
   + y_Tinguiririca_de_San_Fernando_CEB_Puerto_Montt_1_Gimnasio_Fiscal_de_Ancud_1
   + y_Tinguiririca_de_San_Fernando_CEB_Puerto_Montt_1_Gimnasio_Monumental_María_Gallardo_1
   + y_Tinguiririca_de_San_Fernando_CEB_Puerto_Montt_1_Gimnasio_Fiscal_de_Castro_1
   + y_Tinguiririca_de_San_Fernando_CEB_Puerto_Montt_1_Gimnasio_de_Las_Ánimas_1
   + y_Tinguiririca_de_San_Fernando_CEB_Puerto_Montt_1_Gimnasio_Municipal_Mario_Merchant_Binder_1
   + y_Tinguiririca_de_San_Fernando_CEB_Puerto_Montt_2_Gimnasio_Colegio_Los_Leones_1
   + y_Tinguiririca_de_San_Fernando_CEB_Puerto_Montt_2_Gimnasio_Regional_de_Talca_1
   + y_Tinguiririca_de_San_Fernando_CEB_Puerto_Montt_2_Gimnasio_Municipal_de_San_Fernando_1
   + y_Tinguiririca_de_San_Fernando_CEB_Puerto_Montt_2_Estadio_Palestino_1
   + y_Tinguiririca_de_San_Fernando_CEB_Puerto_Montt_2_Casa_del_Deporte_1
   + y_Tinguiririca_de_San_Fernando_CEB_Puerto_Montt_2_Gimnasio_Municipal_de_Puente_Alto_1
   + y_Tinguiririca_de_San_Fernando_CEB_Puerto_Montt_2_Coliseo_Municipal_Antonio_Azurmendy_1
   + y_Tinguiririca_de_San_Fernando_CEB_Puerto_Montt_2_Gimnasio_Fiscal_de_Ancud_1
   + y_Tinguiririca_de_San_Fernando_CEB_Puerto_Montt_2_Gimnasio_Monumental_María_Gallardo_1
   + y_Tinguiririca_de_San_Fernando_CEB_Puerto_Montt_2_Gimnasio_Fiscal_de_Castro_1
   + y_Tinguiririca_de_San_Fernando_CEB_Puerto_Montt_2_Gimnasio_de_Las_Ánimas_1
   + y_Tinguiririca_de_San_Fernando_CEB_Puerto_Montt_2_Gimnasio_Municipal_Mario_Merchant_Binder_1
   + y_Tinguiririca_de_San_Fernando_CEB_Puerto_Montt_3_Gimnasio_Colegio_Los_Leones_1
   + y_Tinguiririca_de_San_Fernando_CEB_Puerto_Montt_3_Gimnasio_Regional_de_Talca_1
   + y_Tinguiririca_de_San_Fernando_CEB_Puerto_Montt_3_Gimnasio_Municipal_de_San_Fernando_1
   + y_Tinguiririca_de_San_Fernando_CEB_Puerto_Montt_3_Estadio_Palestino_1
   + y_Tinguiririca_de_San_Fernando_CEB_Puerto_Montt_3_Casa_del_Deporte_1
   + y_Tinguiririca_de_San_Fernando_CEB_Puerto_Montt_3_Gimnasio_Municipal_de_Puente_Alto_1
   + y_Tinguiririca_de_San_Fernando_CEB_Puerto_Montt_3_Coliseo_Municipal_Antonio_Azurmendy_1
   + y_Tinguiririca_de_San_Fernando_CEB_Puerto_Montt_3_Gimnasio_Fiscal_de_Ancud_1
   + y_Tinguiririca_de_San_Fernando_CEB_Puerto_Montt_3_Gimnasio_Monumental_María_Gallardo_1
   + y_Tinguiririca_de_San_Fernando_CEB_Puerto_Montt_3_Gimnasio_Fiscal_de_Castro_1
   + y_Tinguiririca_de_San_Fernando_CEB_Puerto_Montt_3_Gimnasio_de_Las_Ánimas_1
   + y_Tinguiririca_de_San_Fernando_CEB_Puerto_Montt_3_Gimnasio_Municipal_Mario_Merchant_Binder_1
   + y_Tinguiririca_de_San_Fernando_CEB_Puerto_Montt_4_Gimnasio_Colegio_Los_Leones_1
   + y_Tinguiririca_de_San_Fernando_CEB_Puerto_Montt_4_Gimnasio_Regional_de_Talca_1
   + y_Tinguiririca_de_San_Fernando_CEB_Puerto_Montt_4_Gimnasio_Municipal_de_San_Fernando_1
   + y_Tinguiririca_de_San_Fernando_CEB_Puerto_Montt_4_Estadio_Palestino_1
   + y_Tinguiririca_de_San_Fernando_CEB_Puerto_Montt_4_Casa_del_Deporte_1
   + y_Tinguiririca_de_San_Fernando_CEB_Puerto_Montt_4_Gimnasio_Municipal_de_Puente_Alto_1
   + y_Tinguiririca_de_San_Fernando_CEB_Puerto_Montt_4_Coliseo_Municipal_Antonio_Azurmendy_1
   + y_Tinguiririca_de_San_Fernando_CEB_Puerto_Montt_4_Gimnasio_Fiscal_de_Ancud_1
   + y_Tinguiririca_de_San_Fernando_CEB_Puerto_Montt_4_Gimnasio_Monumental_María_Gallardo_1
   + y_Tinguiririca_de_San_Fernando_CEB_Puerto_Montt_4_Gimnasio_Fiscal_de_Castro_1
   + y_Tinguiririca_de_San_Fernando_CEB_Puerto_Montt_4_Gimnasio_de_Las_Ánimas_1
   + y_Tinguiririca_de_San_Fernando_CEB_Puerto_Montt_4_Gimnasio_Municipal_Mario_Merchant_Binder_1
   + y_Tinguiririca_de_San_Fernando_CEB_Puerto_Montt_5_Gimnasio_Colegio_Los_Leones_1
   + y_Tinguiririca_de_San_Fernando_CEB_Puerto_Montt_5_Gimnasio_Regional_de_Talca_1
   + y_Tinguiririca_de_San_Fernando_CEB_Puerto_Montt_5_Gimnasio_Municipal_de_San_Fernando_1
   + y_Tinguiririca_de_San_Fernando_CEB_Puerto_Montt_5_Estadio_Palestino_1
   + y_Tinguiririca_de_San_Fernando_CEB_Puerto_Montt_5_Casa_del_Deporte_1
   + y_Tinguiririca_de_San_Fernando_CEB_Puerto_Montt_5_Gimnasio_Municipal_de_Puente_Alto_1
   + y_Tinguiririca_de_San_Fernando_CEB_Puerto_Montt_5_Coliseo_Municipal_Antonio_Azurmendy_1
   + y_Tinguiririca_de_San_Fernando_CEB_Puerto_Montt_5_Gimnasio_Fiscal_de_Ancud_1
   + y_Tinguiririca_de_San_Fernando_CEB_Puerto_Montt_5_Gimnasio_Monumental_María_Gallardo_1
   + y_Tinguiririca_de_San_Fernando_CEB_Puerto_Montt_5_Gimnasio_Fiscal_de_Castro_1
   + y_Tinguiririca_de_San_Fernando_CEB_Puerto_Montt_5_Gimnasio_de_Las_Ánimas_1
   + y_Tinguiririca_de_San_Fernando_CEB_Puerto_Montt_5_Gimnasio_Municipal_Mario_Merchant_Binder_1
   + y_CEB_Puerto_Montt_Tinguiririca_de_San_Fernando_1_Gimnasio_Colegio_Los_Leones_1
   + y_CEB_Puerto_Montt_Tinguiririca_de_San_Fernando_1_Gimnasio_Regional_de_Talca_1
   + y_CEB_Puerto_Montt_Tinguiririca_de_San_Fernando_1_Gimnasio_Municipal_de_San_Fernando_1
   + y_CEB_Puerto_Montt_Tinguiririca_de_San_Fernando_1_Estadio_Palestino_1
   + y_CEB_Puerto_Montt_Tinguiririca_de_San_Fernando_1_Casa_del_Deporte_1
   + y_CEB_Puerto_Montt_Tinguiririca_de_San_Fernando_1_Gimnasio_Municipal_de_Puente_Alto_1
   + y_CEB_Puerto_Montt_Tinguiririca_de_San_Fernando_1_Coliseo_Municipal_Antonio_Azurmendy_1
   + y_CEB_Puerto_Montt_Tinguiririca_de_San_Fernando_1_Gimnasio_Fiscal_de_Ancud_1
   + y_CEB_Puerto_Montt_Tinguiririca_de_San_Fernando_1_Gimnasio_Monumental_María_Gallardo_1
   + y_CEB_Puerto_Montt_Tinguiririca_de_San_Fernando_1_Gimnasio_Fiscal_de_Castro_1
   + y_CEB_Puerto_Montt_Tinguiririca_de_San_Fernando_1_Gimnasio_de_Las_Ánimas_1
   + y_CEB_Puerto_Montt_Tinguiririca_de_San_Fernando_1_Gimnasio_Municipal_Mario_Merchant_Binder_1
   + y_CEB_Puerto_Montt_Tinguiririca_de_San_Fernando_2_Gimnasio_Colegio_Los_Leones_1
   + y_CEB_Puerto_Montt_Tinguiririca_de_San_Fernando_2_Gimnasio_Regional_de_Talca_1
   + y_CEB_Puerto_Montt_Tinguiririca_de_San_Fernando_2_Gimnasio_Municipal_de_San_Fernando_1
   + y_CEB_Puerto_Montt_Tinguiririca_de_San_Fernando_2_Estadio_Palestino_1
   + y_CEB_Puerto_Montt_Tinguiririca_de_San_Fernando_2_Casa_del_Deporte_1
   + y_CEB_Puerto_Montt_Tinguiririca_de_San_Fernando_2_Gimnasio_Municipal_de_Puente_Alto_1
   + y_CEB_Puerto_Montt_Tinguiririca_de_San_Fernando_2_Coliseo_Municipal_Antonio_Azurmendy_1
   + y_CEB_Puerto_Montt_Tinguiririca_de_San_Fernando_2_Gimnasio_Fiscal_de_Ancud_1
   + y_CEB_Puerto_Montt_Tinguiririca_de_San_Fernando_2_Gimnasio_Monumental_María_Gallardo_1
   + y_CEB_Puerto_Montt_Tinguiririca_de_San_Fernando_2_Gimnasio_Fiscal_de_Castro_1
   + y_CEB_Puerto_Montt_Tinguiririca_de_San_Fernando_2_Gimnasio_de_Las_Ánimas_1
   + y_CEB_Puerto_Montt_Tinguiririca_de_San_Fernando_2_Gimnasio_Municipal_Mario_Merchant_Binder_1
   + y_CEB_Puerto_Montt_Tinguiririca_de_San_Fernando_3_Gimnasio_Colegio_Los_Leones_1
   + y_CEB_Puerto_Montt_Tinguiririca_de_San_Fernando_3_Gimnasio_Regional_de_Talca_1
   + y_CEB_Puerto_Montt_Tinguiririca_de_San_Fernando_3_Gimnasio_Municipal_de_San_Fernando_1
   + y_CEB_Puerto_Montt_Tinguiririca_de_San_Fernando_3_Estadio_Palestino_1
   + y_CEB_Puerto_Montt_Tinguiririca_de_San_Fernando_3_Casa_del_Deporte_1
   + y_CEB_Puerto_Montt_Tinguiririca_de_San_Fernando_3_Gimnasio_Municipal_de_Puente_Alto_1
   + y_CEB_Puerto_Montt_Tinguiririca_de_San_Fernando_3_Coliseo_Municipal_Antonio_Azurmendy_1
   + y_CEB_Puerto_Montt_Tinguiririca_de_San_Fernando_3_Gimnasio_Fiscal_de_Ancud_1
   + y_CEB_Puerto_Montt_Tinguiririca_de_San_Fernando_3_Gimnasio_Monumental_María_Gallardo_1
   + y_CEB_Puerto_Montt_Tinguiririca_de_San_Fernando_3_Gimnasio_Fiscal_de_Castro_1
   + y_CEB_Puerto_Montt_Tinguiririca_de_San_Fernando_3_Gimnasio_de_Las_Ánimas_1
   + y_CEB_Puerto_Montt_Tinguiririca_de_San_Fernando_3_Gimnasio_Municipal_Mario_Merchant_Binder_1
   + y_CEB_Puerto_Montt_Tinguiririca_de_San_Fernando_4_Gimnasio_Colegio_Los_Leones_1
   + y_CEB_Puerto_Montt_Tinguiririca_de_San_Fernando_4_Gimnasio_Regional_de_Talca_1
   + y_CEB_Puerto_Montt_Tinguiririca_de_San_Fernando_4_Gimnasio_Municipal_de_San_Fernando_1
   + y_CEB_Puerto_Montt_Tinguiririca_de_San_Fernando_4_Estadio_Palestino_1
   + y_CEB_Puerto_Montt_Tinguiririca_de_San_Fernando_4_Casa_del_Deporte_1
   + y_CEB_Puerto_Montt_Tinguiririca_de_San_Fernando_4_Gimnasio_Municipal_de_Puente_Alto_1
   + y_CEB_Puerto_Montt_Tinguiririca_de_San_Fernando_4_Coliseo_Municipal_Antonio_Azurmendy_1
   + y_CEB_Puerto_Montt_Tinguiririca_de_San_Fernando_4_Gimnasio_Fiscal_de_Ancud_1
   + y_CEB_Puerto_Montt_Tinguiririca_de_San_Fernando_4_Gimnasio_Monumental_María_Gallardo_1
   + y_CEB_Puerto_Montt_Tinguiririca_de_San_Fernando_4_Gimnasio_Fiscal_de_Castro_1
   + y_CEB_Puerto_Montt_Tinguiririca_de_San_Fernando_4_Gimnasio_de_Las_Ánimas_1
   + y_CEB_Puerto_Montt_Tinguiririca_de_San_Fernando_4_Gimnasio_Municipal_Mario_Merchant_Binder_1
   + y_CEB_Puerto_Montt_Tinguiririca_de_San_Fernando_5_Gimnasio_Colegio_Los_Leones_1
   + y_CEB_Puerto_Montt_Tinguiririca_de_San_Fernando_5_Gimnasio_Regional_de_Talca_1
   + y_CEB_Puerto_Montt_Tinguiririca_de_San_Fernando_5_Gimnasio_Municipal_de_San_Fernando_1
   + y_CEB_Puerto_Montt_Tinguiririca_de_San_Fernando_5_Estadio_Palestino_1
   + y_CEB_Puerto_Montt_Tinguiririca_de_San_Fernando_5_Casa_del_Deporte_1
   + y_CEB_Puerto_Montt_Tinguiririca_de_San_Fernando_5_Gimnasio_Municipal_de_Puente_Alto_1
   + y_CEB_Puerto_Montt_Tinguiririca_de_San_Fernando_5_Coliseo_Municipal_Antonio_Azurmendy_1
   + y_CEB_Puerto_Montt_Tinguiririca_de_San_Fernando_5_Gimnasio_Fiscal_de_Ancud_1
   + y_CEB_Puerto_Montt_Tinguiririca_de_San_Fernando_5_Gimnasio_Monumental_María_Gallardo_1
   + y_CEB_Puerto_Montt_Tinguiririca_de_San_Fernando_5_Gimnasio_Fiscal_de_Castro_1
   + y_CEB_Puerto_Montt_Tinguiririca_de_San_Fernando_5_Gimnasio_de_Las_Ánimas_1
   + y_CEB_Puerto_Montt_Tinguiririca_de_San_Fernando_5_Gimnasio_Municipal_Mario_Merchant_Binder_1
   = 1
Bounds
Binaries

 y_Tinguiririca_de_San_Fernando_CEB_Puerto_Montt_1_Gimnasio_Colegio_Los_Leones_1
 y_Tinguiririca_de_San_Fernando_CEB_Puerto_Montt_1_Gimnasio_Regional_de_Talca_1
 y_Tinguiririca_de_San_Fernando_CEB_Puerto_Montt_1_Gimnasio_Municipal_de_San_Fernando_1
 y_Tinguiririca_de_San_Fernando_CEB_Puerto_Montt_1_Estadio_Palestino_1
 y_Tinguiririca_de_San_Fernando_CEB_Puerto_Montt_1_Casa_del_Deporte_1
 y_Tinguiririca_de_San_Fernando_CEB_Puerto_Montt_1_Gimnasio_Municipal_de_Puente_Alto_1
 y_Tinguiririca_de_San_Fernando_CEB_Puerto_Montt_1_Coliseo_Municipal_Antonio_Azurmendy_1
 y_Tinguiririca_de_San_Fernando_CEB_Puerto_Montt_1_Gimnasio_Fiscal_de_Ancud_1
 y_Tinguiririca_de_San_Fernando_CEB_Puerto_Montt_1_Gimnasio_Monumental_María_Gallardo_1
 y_Tinguiririca_de_San_Fernando_CEB_Puerto_Montt_1_Gimnasio_Fiscal_de_Castro_1
 y_Tinguiririca_de_San_Fernando_CEB_Puerto_Montt_1_Gimnasio_de_Las_Ánimas_1
 y_Tinguiririca_de_San_Fernando_CEB_Puerto_Montt_1_Gimnasio_Municipal_Mario_Merchant_Binder_1
 y_Tinguiririca_de_San_Fernando_CEB_Puerto_Montt_2_Gimnasio_Colegio_Los_Leones_1
 y_Tinguiririca_de_San_Fernando_CEB_Puerto_Montt_2_Gimnasio_Regional_de_Talca_1
 y_Tinguiririca_de_San_Fernando_CEB_Puerto_Montt_2_Gimnasio_Municipal_de_San_Fernando_1
 y_Tinguiririca_de_San_Fernando_CEB_Puerto_Montt_2_Estadio_Palestino_1
 y_Tinguiririca_de_San_Fernando_CEB_Puerto_Montt_2_Casa_del_Deporte_1
 y_Tinguiririca_de_San_Fernando_CEB_Puerto_Montt_2_Gimnasio_Municipal_de_Puente_Alto_1
 y_Tinguiririca_de_San_Fernando_CEB_Puerto_Montt_2_Coliseo_Municipal_Antonio_Azurmendy_1
 y_Tinguiririca_de_San_Fernando_CEB_Puerto_Montt_2_Gimnasio_Fiscal_de_Ancud_1
 y_Tinguiririca_de_San_Fernando_CEB_Puerto_Montt_2_Gimnasio_Monumental_María_Gallardo_1
 y_Tinguiririca_de_San_Fernando_CEB_Puerto_Montt_2_Gimnasio_Fiscal_de_Castro_1
 y_Tinguiririca_de_San_Fernando_CEB_Puerto_Montt_2_Gimnasio_de_Las_Ánimas_1
 y_Tinguiririca_de_San_Fernando_CEB_Puerto_Montt_2_Gimnasio_Municipal_Mario_Merchant_Binder_1
 y_Tinguiririca_de_San_Fernando_CEB_Puerto_Montt_3_Gimnasio_Colegio_Los_Leones_1
 y_Tinguiririca_de_San_Fernando_CEB_Puerto_Montt_3_Gimnasio_Regional_de_Talca_1
 y_Tinguiririca_de_San_Fernando_CEB_Puerto_Montt_3_Gimnasio_Municipal_de_San_Fernando_1
 y_Tinguiririca_de_San_Fernando_CEB_Puerto_Montt_3_Estadio_Palestino_1
 y_Tinguiririca_de_San_Fernando_CEB_Puerto_Montt_3_Casa_del_Deporte_1
 y_Tinguiririca_de_San_Fernando_CEB_Puerto_Montt_3_Gimnasio_Municipal_de_Puente_Alto_1
 y_Tinguiririca_de_San_Fernando_CEB_Puerto_Montt_3_Coliseo_Municipal_Antonio_Azurmendy_1
 y_Tinguiririca_de_San_Fernando_CEB_Puerto_Montt_3_Gimnasio_Fiscal_de_Ancud_1
 y_Tinguiririca_de_San_Fernando_CEB_Puerto_Montt_3_Gimnasio_Monumental_María_Gallardo_1
 y_Tinguiririca_de_San_Fernando_CEB_Puerto_Montt_3_Gimnasio_Fiscal_de_Castro_1
 y_Tinguiririca_de_San_Fernando_CEB_Puerto_Montt_3_Gimnasio_de_Las_Ánimas_1
 y_Tinguiririca_de_San_Fernando_CEB_Puerto_Montt_3_Gimnasio_Municipal_Mario_Merchant_Binder_1
 y_Tinguiririca_de_San_Fernando_CEB_Puerto_Montt_4_Gimnasio_Colegio_Los_Leones_1
 y_Tinguiririca_de_San_Fernando_CEB_Puerto_Montt_4_Gimnasio_Regional_de_Talca_1
 y_Tinguiririca_de_San_Fernando_CEB_Puerto_Montt_4_Gimnasio_Municipal_de_San_Fernando_1
 y_Tinguiririca_de_San_Fernando_CEB_Puerto_Montt_4_Estadio_Palestino_1
 y_Tinguiririca_de_San_Fernando_CEB_Puerto_Montt_4_Casa_del_Deporte_1
 y_Tinguiririca_de_San_Fernando_CEB_Puerto_Montt_4_Gimnasio_Municipal_de_Puente_Alto_1
 y_Tinguiririca_de_San_Fernando_CEB_Puerto_Montt_4_Coliseo_Municipal_Antonio_Azurmendy_1
 y_Tinguiririca_de_San_Fernando_CEB_Puerto_Montt_4_Gimnasio_Fiscal_de_Ancud_1
 y_Tinguiririca_de_San_Fernando_CEB_Puerto_Montt_4_Gimnasio_Monumental_María_Gallardo_1
 y_Tinguiririca_de_San_Fernando_CEB_Puerto_Montt_4_Gimnasio_Fiscal_de_Castro_1
 y_Tinguiririca_de_San_Fernando_CEB_Puerto_Montt_4_Gimnasio_de_Las_Ánimas_1
 y_Tinguiririca_de_San_Fernando_CEB_Puerto_Montt_4_Gimnasio_Municipal_Mario_Merchant_Binder_1
 y_Tinguiririca_de_San_Fernando_CEB_Puerto_Montt_5_Gimnasio_Colegio_Los_Leones_1
 y_Tinguiririca_de_San_Fernando_CEB_Puerto_Montt_5_Gimnasio_Regional_de_Talca_1
 y_Tinguiririca_de_San_Fernando_CEB_Puerto_Montt_5_Gimnasio_Municipal_de_San_Fernando_1
 y_Tinguiririca_de_San_Fernando_CEB_Puerto_Montt_5_Estadio_Palestino_1
 y_Tinguiririca_de_San_Fernando_CEB_Puerto_Montt_5_Casa_del_Deporte_1
 y_Tinguiririca_de_San_Fernando_CEB_Puerto_Montt_5_Gimnasio_Municipal_de_Puente_Alto_1
 y_Tinguiririca_de_San_Fernando_CEB_Puerto_Montt_5_Coliseo_Municipal_Antonio_Azurmendy_1
 y_Tinguiririca_de_San_Fernando_CEB_Puerto_Montt_5_Gimnasio_Fiscal_de_Ancud_1
 y_Tinguiririca_de_San_Fernando_CEB_Puerto_Montt_5_Gimnasio_Monumental_María_Gallardo_1
 y_Tinguiririca_de_San_Fernando_CEB_Puerto_Montt_5_Gimnasio_Fiscal_de_Castro_1
 y_Tinguiririca_de_San_Fernando_CEB_Puerto_Montt_5_Gimnasio_de_Las_Ánimas_1
 y_Tinguiririca_de_San_Fernando_CEB_Puerto_Montt_5_Gimnasio_Municipal_Mario_Merchant_Binder_1
 y_CEB_Puerto_Montt_Tinguiririca_de_San_Fernando_1_Gimnasio_Colegio_Los_Leones_1
 y_CEB_Puerto_Montt_Tinguiririca_de_San_Fernando_1_Gimnasio_Regional_de_Talca_1
 y_CEB_Puerto_Montt_Tinguiririca_de_San_Fernando_1_Gimnasio_Municipal_de_San_Fernando_1
 y_CEB_Puerto_Montt_Tinguiririca_de_San_Fernando_1_Estadio_Palestino_1
 y_CEB_Puerto_Montt_Tinguiririca_de_San_Fernando_1_Casa_del_Deporte_1
 y_CEB_Puerto_Montt_Tinguiririca_de_San_Fernando_1_Gimnasio_Municipal_de_Puente_Alto_1
 y_CEB_Puerto_Montt_Tinguiririca_de_San_Fernando_1_Coliseo_Municipal_Antonio_Azurmendy_1
 y_CEB_Puerto_Montt_Tinguiririca_de_San_Fernando_1_Gimnasio_Fiscal_de_Ancud_1
 y_CEB_Puerto_Montt_Tinguiririca_de_San_Fernando_1_Gimnasio_Monumental_María_Gallardo_1
 y_CEB_Puerto_Montt_Tinguiririca_de_San_Fernando_1_Gimnasio_Fiscal_de_Castro_1
 y_CEB_Puerto_Montt_Tinguiririca_de_San_Fernando_1_Gimnasio_de_Las_Ánimas_1
 y_CEB_Puerto_Montt_Tinguiririca_de_San_Fernando_1_Gimnasio_Municipal_Mario_Merchant_Binder_1
 y_CEB_Puerto_Montt_Tinguiririca_de_San_Fernando_2_Gimnasio_Colegio_Los_Leones_1
 y_CEB_Puerto_Montt_Tinguiririca_de_San_Fernando_2_Gimnasio_Regional_de_Talca_1
 y_CEB_Puerto_Montt_Tinguiririca_de_San_Fernando_2_Gimnasio_Municipal_de_San_Fernando_1
 y_CEB_Puerto_Montt_Tinguiririca_de_San_Fernando_2_Estadio_Palestino_1
 y_CEB_Puerto_Montt_Tinguiririca_de_San_Fernando_2_Casa_del_Deporte_1
 y_CEB_Puerto_Montt_Tinguiririca_de_San_Fernando_2_Gimnasio_Municipal_de_Puente_Alto_1
 y_CEB_Puerto_Montt_Tinguiririca_de_San_Fernando_2_Coliseo_Municipal_Antonio_Azurmendy_1
 y_CEB_Puerto_Montt_Tinguiririca_de_San_Fernando_2_Gimnasio_Fiscal_de_Ancud_1
 y_CEB_Puerto_Montt_Tinguiririca_de_San_Fernando_2_Gimnasio_Monumental_María_Gallardo_1
 y_CEB_Puerto_Montt_Tinguiririca_de_San_Fernando_2_Gimnasio_Fiscal_de_Castro_1
 y_CEB_Puerto_Montt_Tinguiririca_de_San_Fernando_2_Gimnasio_de_Las_Ánimas_1
 y_CEB_Puerto_Montt_Tinguiririca_de_San_Fernando_2_Gimnasio_Municipal_Mario_Merchant_Binder_1
 y_CEB_Puerto_Montt_Tinguiririca_de_San_Fernando_3_Gimnasio_Colegio_Los_Leones_1
 y_CEB_Puerto_Montt_Tinguiririca_de_San_Fernando_3_Gimnasio_Regional_de_Talca_1
 y_CEB_Puerto_Montt_Tinguiririca_de_San_Fernando_3_Gimnasio_Municipal_de_San_Fernando_1
 y_CEB_Puerto_Montt_Tinguiririca_de_San_Fernando_3_Estadio_Palestino_1
 y_CEB_Puerto_Montt_Tinguiririca_de_San_Fernando_3_Casa_del_Deporte_1
 y_CEB_Puerto_Montt_Tinguiririca_de_San_Fernando_3_Gimnasio_Municipal_de_Puente_Alto_1
 y_CEB_Puerto_Montt_Tinguiririca_de_San_Fernando_3_Coliseo_Municipal_Antonio_Azurmendy_1
 y_CEB_Puerto_Montt_Tinguiririca_de_San_Fernando_3_Gimnasio_Fiscal_de_Ancud_1
 y_CEB_Puerto_Montt_Tinguiririca_de_San_Fernando_3_Gimnasio_Monumental_María_Gallardo_1
 y_CEB_Puerto_Montt_Tinguiririca_de_San_Fernando_3_Gimnasio_Fiscal_de_Castro_1
 y_CEB_Puerto_Montt_Tinguiririca_de_San_Fernando_3_Gimnasio_de_Las_Ánimas_1
 y_CEB_Puerto_Montt_Tinguiririca_de_San_Fernando_3_Gimnasio_Municipal_Mario_Merchant_Binder_1
 y_CEB_Puerto_Montt_Tinguiririca_de_San_Fernando_4_Gimnasio_Colegio_Los_Leones_1
 y_CEB_Puerto_Montt_Tinguiririca_de_San_Fernando_4_Gimnasio_Regional_de_Talca_1
 y_CEB_Puerto_Montt_Tinguiririca_de_San_Fernando_4_Gimnasio_Municipal_de_San_Fernando_1
 y_CEB_Puerto_Montt_Tinguiririca_de_San_Fernando_4_Estadio_Palestino_1
 y_CEB_Puerto_Montt_Tinguiririca_de_San_Fernando_4_Casa_del_Deporte_1
 y_CEB_Puerto_Montt_Tinguiririca_de_San_Fernando_4_Gimnasio_Municipal_de_Puente_Alto_1
 y_CEB_Puerto_Montt_Tinguiririca_de_San_Fernando_4_Coliseo_Municipal_Antonio_Azurmendy_1
 y_CEB_Puerto_Montt_Tinguiririca_de_San_Fernando_4_Gimnasio_Fiscal_de_Ancud_1
 y_CEB_Puerto_Montt_Tinguiririca_de_San_Fernando_4_Gimnasio_Monumental_María_Gallardo_1
 y_CEB_Puerto_Montt_Tinguiririca_de_San_Fernando_4_Gimnasio_Fiscal_de_Castro_1
 y_CEB_Puerto_Montt_Tinguiririca_de_San_Fernando_4_Gimnasio_de_Las_Ánimas_1
 y_CEB_Puerto_Montt_Tinguiririca_de_San_Fernando_4_Gimnasio_Municipal_Mario_Merchant_Binder_1
 y_CEB_Puerto_Montt_Tinguiririca_de_San_Fernando_5_Gimnasio_Colegio_Los_Leones_1
 y_CEB_Puerto_Montt_Tinguiririca_de_San_Fernando_5_Gimnasio_Regional_de_Talca_1
 y_CEB_Puerto_Montt_Tinguiririca_de_San_Fernando_5_Gimnasio_Municipal_de_San_Fernando_1
 y_CEB_Puerto_Montt_Tinguiririca_de_San_Fernando_5_Estadio_Palestino_1
 y_CEB_Puerto_Montt_Tinguiririca_de_San_Fernando_5_Casa_del_Deporte_1
 y_CEB_Puerto_Montt_Tinguiririca_de_San_Fernando_5_Gimnasio_Municipal_de_Puente_Alto_1
 y_CEB_Puerto_Montt_Tinguiririca_de_San_Fernando_5_Coliseo_Municipal_Antonio_Azurmendy_1
 y_CEB_Puerto_Montt_Tinguiririca_de_San_Fernando_5_Gimnasio_Fiscal_de_Ancud_1
 y_CEB_Puerto_Montt_Tinguiririca_de_San_Fernando_5_Gimnasio_Monumental_María_Gallardo_1
 y_CEB_Puerto_Montt_Tinguiririca_de_San_Fernando_5_Gimnasio_Fiscal_de_Castro_1
 y_CEB_Puerto_Montt_Tinguiririca_de_San_Fernando_5_Gimnasio_de_Las_Ánimas_1
 y_CEB_Puerto_Montt_Tinguiririca_de_San_Fernando_5_Gimnasio_Municipal_Mario_Merchant_Binder_1
End
